c File: flat50_3_0.col
c
c SOURCE: Joseph Culberson (joe@cs.ualberta.ca)
c DESCRIPTION: Quasi-random coloring problem
c              generated with flatness = 0
c                             probability = 0.139
c                             known coloring = 3
c                             random seed = 1890
c              Creation Date:  Tue Jun  9 12:20:25 1998
c Maximum degree = 8 Minimum degree = 1
c p edge 50 115
c cnf created by edge2cnf
p cnf 150 545
-1 -2 0
-1 -3 0
-2 -3 0
1 2 3 0
-4 -5 0
-4 -6 0
-5 -6 0
4 5 6 0
-7 -8 0
-7 -9 0
-8 -9 0
7 8 9 0
-10 -11 0
-10 -12 0
-11 -12 0
10 11 12 0
-13 -14 0
-13 -15 0
-14 -15 0
13 14 15 0
-16 -17 0
-16 -18 0
-17 -18 0
16 17 18 0
-19 -20 0
-19 -21 0
-20 -21 0
19 20 21 0
-22 -23 0
-22 -24 0
-23 -24 0
22 23 24 0
-25 -26 0
-25 -27 0
-26 -27 0
25 26 27 0
-28 -29 0
-28 -30 0
-29 -30 0
28 29 30 0
-31 -32 0
-31 -33 0
-32 -33 0
31 32 33 0
-34 -35 0
-34 -36 0
-35 -36 0
34 35 36 0
-37 -38 0
-37 -39 0
-38 -39 0
37 38 39 0
-40 -41 0
-40 -42 0
-41 -42 0
40 41 42 0
-43 -44 0
-43 -45 0
-44 -45 0
43 44 45 0
-46 -47 0
-46 -48 0
-47 -48 0
46 47 48 0
-49 -50 0
-49 -51 0
-50 -51 0
49 50 51 0
-52 -53 0
-52 -54 0
-53 -54 0
52 53 54 0
-55 -56 0
-55 -57 0
-56 -57 0
55 56 57 0
-58 -59 0
-58 -60 0
-59 -60 0
58 59 60 0
-61 -62 0
-61 -63 0
-62 -63 0
61 62 63 0
-64 -65 0
-64 -66 0
-65 -66 0
64 65 66 0
-67 -68 0
-67 -69 0
-68 -69 0
67 68 69 0
-70 -71 0
-70 -72 0
-71 -72 0
70 71 72 0
-73 -74 0
-73 -75 0
-74 -75 0
73 74 75 0
-76 -77 0
-76 -78 0
-77 -78 0
76 77 78 0
-79 -80 0
-79 -81 0
-80 -81 0
79 80 81 0
-82 -83 0
-82 -84 0
-83 -84 0
82 83 84 0
-85 -86 0
-85 -87 0
-86 -87 0
85 86 87 0
-88 -89 0
-88 -90 0
-89 -90 0
88 89 90 0
-91 -92 0
-91 -93 0
-92 -93 0
91 92 93 0
-94 -95 0
-94 -96 0
-95 -96 0
94 95 96 0
-97 -98 0
-97 -99 0
-98 -99 0
97 98 99 0
-100 -101 0
-100 -102 0
-101 -102 0
100 101 102 0
-103 -104 0
-103 -105 0
-104 -105 0
103 104 105 0
-106 -107 0
-106 -108 0
-107 -108 0
106 107 108 0
-109 -110 0
-109 -111 0
-110 -111 0
109 110 111 0
-112 -113 0
-112 -114 0
-113 -114 0
112 113 114 0
-115 -116 0
-115 -117 0
-116 -117 0
115 116 117 0
-118 -119 0
-118 -120 0
-119 -120 0
118 119 120 0
-121 -122 0
-121 -123 0
-122 -123 0
121 122 123 0
-124 -125 0
-124 -126 0
-125 -126 0
124 125 126 0
-127 -128 0
-127 -129 0
-128 -129 0
127 128 129 0
-130 -131 0
-130 -132 0
-131 -132 0
130 131 132 0
-133 -134 0
-133 -135 0
-134 -135 0
133 134 135 0
-136 -137 0
-136 -138 0
-137 -138 0
136 137 138 0
-139 -140 0
-139 -141 0
-140 -141 0
139 140 141 0
-142 -143 0
-142 -144 0
-143 -144 0
142 143 144 0
-145 -146 0
-145 -147 0
-146 -147 0
145 146 147 0
-148 -149 0
-148 -150 0
-149 -150 0
148 149 150 0
-88 -1 0
-89 -2 0
-90 -3 0
-97 -4 0
-98 -5 0
-99 -6 0
-100 -4 0
-101 -5 0
-102 -6 0
-106 -4 0
-107 -5 0
-108 -6 0
-94 -7 0
-95 -8 0
-96 -9 0
-130 -7 0
-131 -8 0
-132 -9 0
-142 -7 0
-143 -8 0
-144 -9 0
-52 -10 0
-53 -11 0
-54 -12 0
-76 -10 0
-77 -11 0
-78 -12 0
-79 -10 0
-80 -11 0
-81 -12 0
-112 -10 0
-113 -11 0
-114 -12 0
-130 -10 0
-131 -11 0
-132 -12 0
-136 -10 0
-137 -11 0
-138 -12 0
-91 -13 0
-92 -14 0
-93 -15 0
-94 -13 0
-95 -14 0
-96 -15 0
-106 -13 0
-107 -14 0
-108 -15 0
-118 -13 0
-119 -14 0
-120 -15 0
-130 -13 0
-131 -14 0
-132 -15 0
-136 -13 0
-137 -14 0
-138 -15 0
-70 -16 0
-71 -17 0
-72 -18 0
-91 -16 0
-92 -17 0
-93 -18 0
-112 -16 0
-113 -17 0
-114 -18 0
-124 -16 0
-125 -17 0
-126 -18 0
-145 -16 0
-146 -17 0
-147 -18 0
-94 -19 0
-95 -20 0
-96 -21 0
-100 -19 0
-101 -20 0
-102 -21 0
-103 -19 0
-104 -20 0
-105 -21 0
-109 -19 0
-110 -20 0
-111 -21 0
-133 -19 0
-134 -20 0
-135 -21 0
-139 -19 0
-140 -20 0
-141 -21 0
-97 -22 0
-98 -23 0
-99 -24 0
-130 -22 0
-131 -23 0
-132 -24 0
-64 -25 0
-65 -26 0
-66 -27 0
-88 -25 0
-89 -26 0
-90 -27 0
-100 -25 0
-101 -26 0
-102 -27 0
-103 -25 0
-104 -26 0
-105 -27 0
-106 -25 0
-107 -26 0
-108 -27 0
-58 -28 0
-59 -29 0
-60 -30 0
-115 -28 0
-116 -29 0
-117 -30 0
-133 -28 0
-134 -29 0
-135 -30 0
-55 -31 0
-56 -32 0
-57 -33 0
-58 -31 0
-59 -32 0
-60 -33 0
-70 -31 0
-71 -32 0
-72 -33 0
-109 -31 0
-110 -32 0
-111 -33 0
-136 -31 0
-137 -32 0
-138 -33 0
-139 -31 0
-140 -32 0
-141 -33 0
-142 -31 0
-143 -32 0
-144 -33 0
-52 -34 0
-53 -35 0
-54 -36 0
-64 -34 0
-65 -35 0
-66 -36 0
-124 -34 0
-125 -35 0
-126 -36 0
-73 -37 0
-74 -38 0
-75 -39 0
-76 -37 0
-77 -38 0
-78 -39 0
-88 -37 0
-89 -38 0
-90 -39 0
-100 -37 0
-101 -38 0
-102 -39 0
-115 -37 0
-116 -38 0
-117 -39 0
-136 -37 0
-137 -38 0
-138 -39 0
-58 -40 0
-59 -41 0
-60 -42 0
-67 -40 0
-68 -41 0
-69 -42 0
-142 -40 0
-143 -41 0
-144 -42 0
-70 -43 0
-71 -44 0
-72 -45 0
-88 -43 0
-89 -44 0
-90 -45 0
-97 -43 0
-98 -44 0
-99 -45 0
-115 -43 0
-116 -44 0
-117 -45 0
-124 -43 0
-125 -44 0
-126 -45 0
-145 -43 0
-146 -44 0
-147 -45 0
-52 -46 0
-53 -47 0
-54 -48 0
-58 -46 0
-59 -47 0
-60 -48 0
-67 -46 0
-68 -47 0
-69 -48 0
-91 -46 0
-92 -47 0
-93 -48 0
-115 -46 0
-116 -47 0
-117 -48 0
-52 -49 0
-53 -50 0
-54 -51 0
-55 -49 0
-56 -50 0
-57 -51 0
-64 -49 0
-65 -50 0
-66 -51 0
-97 -49 0
-98 -50 0
-99 -51 0
-106 -49 0
-107 -50 0
-108 -51 0
-121 -49 0
-122 -50 0
-123 -51 0
-148 -49 0
-149 -50 0
-150 -51 0
-103 -52 0
-104 -53 0
-105 -54 0
-118 -52 0
-119 -53 0
-120 -54 0
-127 -52 0
-128 -53 0
-129 -54 0
-148 -52 0
-149 -53 0
-150 -54 0
-103 -55 0
-104 -56 0
-105 -57 0
-142 -55 0
-143 -56 0
-144 -57 0
-103 -58 0
-104 -59 0
-105 -60 0
-124 -58 0
-125 -59 0
-126 -60 0
-130 -58 0
-131 -59 0
-132 -60 0
-133 -58 0
-134 -59 0
-135 -60 0
-118 -61 0
-119 -62 0
-120 -63 0
-127 -61 0
-128 -62 0
-129 -63 0
-136 -64 0
-137 -65 0
-138 -66 0
-142 -64 0
-143 -65 0
-144 -66 0
-139 -67 0
-140 -68 0
-141 -69 0
-112 -73 0
-113 -74 0
-114 -75 0
-124 -73 0
-125 -74 0
-126 -75 0
-142 -73 0
-143 -74 0
-144 -75 0
-148 -73 0
-149 -74 0
-150 -75 0
-145 -79 0
-146 -80 0
-147 -81 0
-115 -82 0
-116 -83 0
-117 -84 0
-148 -82 0
-149 -83 0
-150 -84 0
-133 -85 0
-134 -86 0
-135 -87 0
-136 -85 0
-137 -86 0
-138 -87 0
-139 -85 0
-140 -86 0
-141 -87 0
-148 -85 0
-149 -86 0
-150 -87 0
-103 -88 0
-104 -89 0
-105 -90 0
-109 -88 0
-110 -89 0
-111 -90 0
-118 -91 0
-119 -92 0
-120 -93 0
-124 -91 0
-125 -92 0
-126 -93 0
-139 -91 0
-140 -92 0
-141 -93 0
-118 -94 0
-119 -95 0
-120 -96 0
-127 -94 0
-128 -95 0
-129 -96 0
-133 -94 0
-134 -95 0
-135 -96 0
-121 -97 0
-122 -98 0
-123 -99 0
-139 -97 0
-140 -98 0
-141 -99 0
-124 -100 0
-125 -101 0
-126 -102 0
-133 -100 0
-134 -101 0
-135 -102 0
